language Essence 1.3

letting blksize_delta be function(1 --> 7, 2 --> 7, 3 --> 7, 4 --> 7, 5 --> 7, 6 --> 7, 7 --> 7)
letting maxcars be function(1 --> 10, 2 --> 10, 3 --> 10, 4 --> 10, 5 --> 10, 6 --> 10, 7 --> 10)
letting n_cars be 268
letting n_classes be 77
letting n_options be 7
letting quantity be
        function(1 --> 29, 2 --> 3, 3 --> 5, 4 --> 7, 5 --> 3, 6 --> 5, 7 --> 5, 8 --> 4, 9 --> 3, 10 --> 3, 11 --> 3,
                 12 --> 3, 13 --> 3, 14 --> 3, 15 --> 3, 16 --> 3, 17 --> 3, 18 --> 3, 19 --> 3, 20 --> 3, 21 --> 3,
                 22 --> 3, 23 --> 3, 24 --> 3, 25 --> 3, 26 --> 3, 27 --> 3, 28 --> 3, 29 --> 3, 30 --> 3, 31 --> 3,
                 32 --> 3, 33 --> 3, 34 --> 3, 35 --> 3, 36 --> 3, 37 --> 3, 38 --> 3, 39 --> 3, 40 --> 3, 41 --> 3,
                 42 --> 3, 43 --> 3, 44 --> 3, 45 --> 3, 46 --> 3, 47 --> 3, 48 --> 3, 49 --> 3, 50 --> 3, 51 --> 3,
                 52 --> 3, 53 --> 3, 54 --> 3, 55 --> 3, 56 --> 3, 57 --> 3, 58 --> 3, 59 --> 3, 60 --> 3, 61 --> 3,
                 62 --> 3, 63 --> 3, 64 --> 3, 65 --> 3, 66 --> 3, 67 --> 3, 68 --> 3, 69 --> 3, 70 --> 3, 71 --> 3,
                 72 --> 3, 73 --> 3, 74 --> 3, 75 --> 3, 76 --> 3, 77 --> 3)
letting usage be
        relation((1, 3), (1, 4), (1, 6), (2, 2), (2, 3), (2, 4), (3, 2), (3, 5), (4, 1), (4, 3), (4, 4), (5, 7), (6, 2),
                 (6, 6), (7, 5), (8, 2), (8, 3), (8, 4), (8, 5), (8, 6), (9, 1), (9, 2), (9, 3), (9, 4), (10, 2),
                 (10, 5), (10, 6), (11, 1), (11, 6), (12, 1), (12, 3), (12, 5), (12, 6), (13, 3), (13, 5), (13, 6),
                 (14, 1), (14, 2), (14, 5), (14, 6), (15, 1), (15, 3), (15, 4), (16, 1), (16, 2), (16, 3), (16, 4),
                 (17, 1), (17, 2), (17, 3), (17, 5), (18, 4), (19, 2), (19, 3), (20, 7), (21, 1), (22, 1), (22, 3),
                 (22, 6), (23, 1), (23, 3), (23, 4), (23, 5), (24, 5), (24, 6), (25, 2), (25, 4), (25, 6), (26, 1),
                 (26, 4), (26, 6), (27, 1), (27, 2), (27, 4), (27, 6), (28, 1), (28, 2), (28, 4), (28, 6), (29, 1),
                 (29, 5), (30, 2), (31, 1), (31, 2), (31, 5), (31, 6), (32, 1), (32, 2), (32, 3), (33, 3), (33, 4),
                 (33, 5), (34, 2), (34, 3), (34, 4), (34, 6), (35, 2), (35, 3), (35, 4), (35, 6), (36, 4), (37, 7),
                 (38, 4), (38, 5), (39, 4), (40, 1), (40, 3), (40, 4), (41, 1), (41, 3), (41, 6), (42, 1), (42, 3),
                 (42, 6), (43, 4), (44, 2), (44, 3), (45, 1), (45, 6), (46, 5), (47, 2), (47, 3), (47, 4), (47, 5),
                 (48, 1), (48, 3), (48, 6), (49, 6), (50, 1), (50, 2), (50, 3), (50, 5), (50, 6), (51, 2), (51, 4),
                 (52, 2), (52, 3), (52, 5), (52, 6), (53, 1), (53, 2), (53, 4), (53, 5), (54, 1), (54, 2), (54, 3),
                 (54, 4), (54, 6), (55, 1), (55, 2), (55, 5), (56, 2), (56, 5), (56, 6), (57, 2), (57, 4), (57, 6),
                 (58, 5), (59, 3), (59, 6), (60, 1), (60, 5), (61, 1), (61, 2), (61, 4), (62, 1), (62, 3), (62, 5),
                 (62, 6), (63, 1), (63, 5), (63, 6), (64, 1), (64, 3), (65, 2), (65, 3), (66, 1), (66, 5), (67, 1),
                 (67, 4), (67, 5), (68, 7), (69, 2), (69, 3), (69, 5), (70, 1), (70, 2), (70, 3), (70, 5), (70, 6),
                 (71, 2), (71, 5), (71, 6), (72, 1), (72, 2), (72, 3), (72, 4), (72, 6), (73, 7), (74, 6), (75, 4),
                 (76, 1), (77, 2))
$ Visualisation for usage
$  1  3
$  1  4
$  1  6
$  2  2
$  2  3
$  2  4
$  3  2
$  3  5
$  4  1
$  4  3
$  4  4
$  5  7
$  6  2
$  6  6
$  7  5
$  8  2
$  8  3
$  8  4
$  8  5
$  8  6
$  9  1
$  9  2
$  9  3
$  9  4
$ 10  2
$ 10  5
$ 10  6
$ 11  1
$ 11  6
$ 12  1
$ 12  3
$ 12  5
$ 12  6
$ 13  3
$ 13  5
$ 13  6
$ 14  1
$ 14  2
$ 14  5
$ 14  6
$ 15  1
$ 15  3
$ 15  4
$ 16  1
$ 16  2
$ 16  3
$ 16  4
$ 17  1
$ 17  2
$ 17  3
$ 17  5
$ 18  4
$ 19  2
$ 19  3
$ 20  7
$ 21  1
$ 22  1
$ 22  3
$ 22  6
$ 23  1
$ 23  3
$ 23  4
$ 23  5
$ 24  5
$ 24  6
$ 25  2
$ 25  4
$ 25  6
$ 26  1
$ 26  4
$ 26  6
$ 27  1
$ 27  2
$ 27  4
$ 27  6
$ 28  1
$ 28  2
$ 28  4
$ 28  6
$ 29  1
$ 29  5
$ 30  2
$ 31  1
$ 31  2
$ 31  5
$ 31  6
$ 32  1
$ 32  2
$ 32  3
$ 33  3
$ 33  4
$ 33  5
$ 34  2
$ 34  3
$ 34  4
$ 34  6
$ 35  2
$ 35  3
$ 35  4
$ 35  6
$ 36  4
$ 37  7
$ 38  4
$ 38  5
$ 39  4
$ 40  1
$ 40  3
$ 40  4
$ 41  1
$ 41  3
$ 41  6
$ 42  1
$ 42  3
$ 42  6
$ 43  4
$ 44  2
$ 44  3
$ 45  1
$ 45  6
$ 46  5
$ 47  2
$ 47  3
$ 47  4
$ 47  5
$ 48  1
$ 48  3
$ 48  6
$ 49  6
$ 50  1
$ 50  2
$ 50  3
$ 50  5
$ 50  6
$ 51  2
$ 51  4
$ 52  2
$ 52  3
$ 52  5
$ 52  6
$ 53  1
$ 53  2
$ 53  4
$ 53  5
$ 54  1
$ 54  2
$ 54  3
$ 54  4
$ 54  6
$ 55  1
$ 55  2
$ 55  5
$ 56  2
$ 56  5
$ 56  6
$ 57  2
$ 57  4
$ 57  6
$ 58  5
$ 59  3
$ 59  6
$ 60  1
$ 60  5
$ 61  1
$ 61  2
$ 61  4
$ 62  1
$ 62  3
$ 62  5
$ 62  6
$ 63  1
$ 63  5
$ 63  6
$ 64  1
$ 64  3
$ 65  2
$ 65  3
$ 66  1
$ 66  5
$ 67  1
$ 67  4
$ 67  5
$ 68  7
$ 69  2
$ 69  3
$ 69  5
$ 70  1
$ 70  2
$ 70  3
$ 70  5
$ 70  6
$ 71  2
$ 71  5
$ 71  6
$ 72  1
$ 72  2
$ 72  3
$ 72  4
$ 72  6
$ 73  7
$ 74  6
$ 75  4
$ 76  1
$ 77  2

